c generated by sgen1
c Command: ./sgen1 -unsat -n 139 -s 100 
p cnf 141 292
-2 -3 -4 0
-1 -3 -4 0
-1 -2 -4 0
-1 -2 -3 0
-6 -7 -8 0
-5 -7 -8 0
-5 -6 -8 0
-5 -6 -7 0
-10 -11 -12 0
-9 -11 -12 0
-9 -10 -12 0
-9 -10 -11 0
-14 -15 -16 0
-13 -15 -16 0
-13 -14 -16 0
-13 -14 -15 0
-18 -19 -20 0
-17 -19 -20 0
-17 -18 -20 0
-17 -18 -19 0
-22 -23 -24 0
-21 -23 -24 0
-21 -22 -24 0
-21 -22 -23 0
-26 -27 -28 0
-25 -27 -28 0
-25 -26 -28 0
-25 -26 -27 0
-30 -31 -32 0
-29 -31 -32 0
-29 -30 -32 0
-29 -30 -31 0
-34 -35 -36 0
-33 -35 -36 0
-33 -34 -36 0
-33 -34 -35 0
-38 -39 -40 0
-37 -39 -40 0
-37 -38 -40 0
-37 -38 -39 0
-42 -43 -44 0
-41 -43 -44 0
-41 -42 -44 0
-41 -42 -43 0
-46 -47 -48 0
-45 -47 -48 0
-45 -46 -48 0
-45 -46 -47 0
-50 -51 -52 0
-49 -51 -52 0
-49 -50 -52 0
-49 -50 -51 0
-54 -55 -56 0
-53 -55 -56 0
-53 -54 -56 0
-53 -54 -55 0
-58 -59 -60 0
-57 -59 -60 0
-57 -58 -60 0
-57 -58 -59 0
-62 -63 -64 0
-61 -63 -64 0
-61 -62 -64 0
-61 -62 -63 0
-66 -67 -68 0
-65 -67 -68 0
-65 -66 -68 0
-65 -66 -67 0
-70 -71 -72 0
-69 -71 -72 0
-69 -70 -72 0
-69 -70 -71 0
-74 -75 -76 0
-73 -75 -76 0
-73 -74 -76 0
-73 -74 -75 0
-78 -79 -80 0
-77 -79 -80 0
-77 -78 -80 0
-77 -78 -79 0
-82 -83 -84 0
-81 -83 -84 0
-81 -82 -84 0
-81 -82 -83 0
-86 -87 -88 0
-85 -87 -88 0
-85 -86 -88 0
-85 -86 -87 0
-90 -91 -92 0
-89 -91 -92 0
-89 -90 -92 0
-89 -90 -91 0
-94 -95 -96 0
-93 -95 -96 0
-93 -94 -96 0
-93 -94 -95 0
-98 -99 -100 0
-97 -99 -100 0
-97 -98 -100 0
-97 -98 -99 0
-102 -103 -104 0
-101 -103 -104 0
-101 -102 -104 0
-101 -102 -103 0
-106 -107 -108 0
-105 -107 -108 0
-105 -106 -108 0
-105 -106 -107 0
-110 -111 -112 0
-109 -111 -112 0
-109 -110 -112 0
-109 -110 -111 0
-114 -115 -116 0
-113 -115 -116 0
-113 -114 -116 0
-113 -114 -115 0
-118 -119 -120 0
-117 -119 -120 0
-117 -118 -120 0
-117 -118 -119 0
-122 -123 -124 0
-121 -123 -124 0
-121 -122 -124 0
-121 -122 -123 0
-126 -127 -128 0
-125 -127 -128 0
-125 -126 -128 0
-125 -126 -127 0
-130 -131 -132 0
-129 -131 -132 0
-129 -130 -132 0
-129 -130 -131 0
-134 -135 -136 0
-133 -135 -136 0
-133 -134 -136 0
-133 -134 -135 0
-137 -138 -139  0
-137 -138 -140  0
-137 -138 -141  0
-137 -139 -140  0
-137 -139 -141  0
-137 -140 -141  0
-138 -139 -140  0
-138 -139 -141  0
-138 -140 -141  0
-139 -140 -141  0
78 102 137 0
119 102 137 0
119 78 137 0
119 78 102 0
24 113 128 0
100 113 128 0
100 24 128 0
100 24 113 0
76 93 29 0
131 93 29 0
131 76 29 0
131 76 93 0
130 52 59 0
141 52 59 0
141 130 59 0
141 130 52 0
45 133 109 0
114 133 109 0
114 45 109 0
114 45 133 0
140 92 70 0
111 92 70 0
111 140 70 0
111 140 92 0
31 101 40 0
61 101 40 0
61 31 40 0
61 31 101 0
17 136 104 0
98 136 104 0
98 17 104 0
98 17 136 0
117 41 53 0
18 41 53 0
18 117 53 0
18 117 41 0
14 26 50 0
37 26 50 0
37 14 50 0
37 14 26 0
75 56 5 0
15 56 5 0
15 75 5 0
15 75 56 0
95 105 48 0
39 105 48 0
39 95 48 0
39 95 105 0
6 112 19 0
68 112 19 0
68 6 19 0
68 6 112 0
106 120 30 0
127 120 30 0
127 106 30 0
127 106 120 0
46 2 65 0
88 2 65 0
88 46 65 0
88 46 2 0
25 36 66 0
9 36 66 0
9 25 66 0
9 25 36 0
69 85 60 0
79 85 60 0
79 69 60 0
79 69 85 0
91 121 118 0
81 121 118 0
81 91 118 0
81 91 121 0
7 80 135 0
108 80 135 0
108 7 135 0
108 7 80 0
58 35 64 0
73 35 64 0
73 58 64 0
73 58 35 0
129 44 67 0
134 44 67 0
134 129 67 0
134 129 44 0
124 10 96 0
8 10 96 0
8 124 96 0
8 124 10 0
126 84 55 0
132 84 55 0
132 126 55 0
132 126 84 0
43 138 87 0
63 138 87 0
63 43 87 0
63 43 138 0
13 11 125 0
20 11 125 0
20 13 125 0
20 13 11 0
28 54 89 0
4 54 89 0
4 28 89 0
4 28 54 0
34 116 122 0
32 116 122 0
32 34 122 0
32 34 116 0
107 62 49 0
99 62 49 0
99 107 49 0
99 107 62 0
72 22 16 0
115 22 16 0
115 72 16 0
115 72 22 0
38 33 139 0
21 33 139 0
21 38 139 0
21 38 33 0
71 94 1 0
97 94 1 0
97 71 1 0
97 71 94 0
123 103 74 0
110 103 74 0
110 123 74 0
110 123 103 0
23 86 90 0
51 86 90 0
51 23 90 0
51 23 86 0
83 12 3 0
57 12 3 0
57 83 3 0
57 83 12 0
27 82 77  0
27 82 42  0
27 82 47  0
27 77 42  0
27 77 47  0
27 42 47  0
82 77 42  0
82 77 47  0
82 42 47  0
77 42 47  0
